p edge 50 599 15
v 3 5 10 30
v 8 2 11 21 28 29 38 41 43
v 3 12 32 33
v 4 4 6 16 23
v 2 25 39
v 3 13 24 36
v 3 8 18 26
v 1 37
v 1 27
v 1 49
v 3 14 34 47
v 3 40 42 50
v 2 9 20
v 8 1 3 7 15 17 19 22 44
v 5 31 35 45 46 48
e 1 2
e 1 3
e 1 5
e 1 6
e 1 7
e 1 10
e 1 16
e 1 17
e 1 19
e 1 20
e 1 21
e 1 24
e 1 25
e 1 26
e 1 27
e 1 28
e 1 33
e 1 34
e 1 35
e 1 36
e 1 39
e 1 42
e 1 44
e 1 47
e 1 49
e 1 50
e 2 4
e 2 7
e 2 11
e 2 14
e 2 15
e 2 16
e 2 18
e 2 19
e 2 21
e 2 23
e 2 27
e 2 28
e 2 29
e 2 30
e 2 31
e 2 34
e 2 35
e 2 38
e 2 39
e 2 40
e 2 42
e 2 44
e 2 45
e 2 46
e 2 47
e 2 50
e 3 7
e 3 11
e 3 12
e 3 15
e 3 16
e 3 22
e 3 24
e 3 27
e 3 28
e 3 29
e 3 30
e 3 33
e 3 40
e 3 43
e 3 44
e 3 46
e 3 47
e 3 48
e 3 49
e 4 5
e 4 8
e 4 11
e 4 12
e 4 13
e 4 14
e 4 16
e 4 17
e 4 19
e 4 20
e 4 21
e 4 22
e 4 24
e 4 25
e 4 26
e 4 29
e 4 30
e 4 31
e 4 32
e 4 33
e 4 36
e 4 37
e 4 38
e 4 39
e 4 42
e 4 47
e 4 48
e 4 50
e 5 7
e 5 9
e 5 10
e 5 15
e 5 16
e 5 17
e 5 18
e 5 20
e 5 21
e 5 23
e 5 27
e 5 31
e 5 33
e 5 35
e 5 36
e 5 39
e 5 43
e 5 44
e 5 45
e 5 48
e 5 49
e 5 50
e 6 7
e 6 8
e 6 10
e 6 12
e 6 15
e 6 16
e 6 17
e 6 19
e 6 20
e 6 23
e 6 24
e 6 28
e 6 29
e 6 30
e 6 31
e 6 33
e 6 34
e 6 38
e 6 41
e 6 43
e 6 45
e 7 8
e 7 11
e 7 12
e 7 15
e 7 18
e 7 20
e 7 21
e 7 24
e 7 28
e 7 29
e 7 30
e 7 32
e 7 34
e 7 38
e 7 41
e 7 44
e 7 45
e 7 46
e 7 47
e 8 10
e 8 12
e 8 18
e 8 20
e 8 23
e 8 26
e 8 29
e 8 30
e 8 33
e 8 35
e 8 40
e 8 44
e 8 46
e 8 47
e 8 48
e 8 49
e 9 10
e 9 11
e 9 12
e 9 15
e 9 21
e 9 23
e 9 25
e 9 26
e 9 28
e 9 33
e 9 34
e 9 36
e 9 38
e 9 39
e 9 40
e 9 42
e 9 43
e 9 44
e 9 46
e 9 48
e 10 11
e 10 16
e 10 17
e 10 19
e 10 20
e 10 22
e 10 23
e 10 26
e 10 27
e 10 29
e 10 33
e 10 36
e 10 41
e 10 43
e 10 47
e 10 49
e 10 50
e 11 13
e 11 14
e 11 17
e 11 19
e 11 20
e 11 21
e 11 26
e 11 28
e 11 29
e 11 33
e 11 34
e 11 35
e 11 36
e 11 38
e 11 39
e 11 43
e 11 48
e 11 49
e 11 50
e 12 14
e 12 16
e 12 17
e 12 21
e 12 25
e 12 27
e 12 28
e 12 30
e 12 31
e 12 34
e 12 37
e 12 38
e 12 39
e 12 40
e 12 41
e 12 48
e 12 50
e 13 14
e 13 15
e 13 16
e 13 17
e 13 19
e 13 20
e 13 21
e 13 22
e 13 23
e 13 30
e 13 31
e 13 32
e 13 34
e 13 35
e 13 37
e 13 39
e 13 45
e 13 46
e 13 48
e 14 19
e 14 20
e 14 21
e 14 25
e 14 26
e 14 28
e 14 29
e 14 32
e 14 34
e 14 36
e 14 37
e 14 40
e 14 43
e 14 46
e 14 48
e 14 50
e 15 16
e 15 18
e 15 19
e 15 20
e 15 23
e 15 24
e 15 26
e 15 28
e 15 29
e 15 30
e 15 31
e 15 33
e 15 36
e 15 38
e 15 40
e 15 41
e 15 42
e 15 43
e 15 44
e 15 46
e 15 48
e 15 49
e 15 50
e 16 17
e 16 19
e 16 20
e 16 21
e 16 22
e 16 26
e 16 28
e 16 30
e 16 31
e 16 34
e 16 35
e 16 36
e 16 37
e 16 39
e 16 41
e 16 42
e 16 44
e 16 45
e 16 46
e 16 47
e 16 48
e 16 49
e 17 20
e 17 22
e 17 23
e 17 24
e 17 26
e 17 28
e 17 35
e 17 36
e 17 40
e 17 42
e 17 45
e 17 46
e 17 47
e 17 48
e 17 49
e 17 50
e 18 20
e 18 24
e 18 25
e 18 26
e 18 28
e 18 31
e 18 36
e 18 38
e 18 39
e 18 40
e 18 41
e 18 46
e 18 47
e 18 48
e 19 20
e 19 21
e 19 22
e 19 23
e 19 26
e 19 27
e 19 29
e 19 30
e 19 32
e 19 34
e 19 35
e 19 36
e 19 37
e 19 39
e 19 42
e 19 43
e 19 44
e 19 45
e 19 46
e 19 48
e 20 23
e 20 25
e 20 28
e 20 29
e 20 30
e 20 36
e 20 38
e 20 40
e 20 42
e 20 44
e 20 45
e 20 46
e 20 48
e 20 49
e 21 24
e 21 27
e 21 28
e 21 31
e 21 33
e 21 35
e 21 36
e 21 37
e 21 39
e 21 46
e 21 48
e 21 50
e 22 23
e 22 25
e 22 26
e 22 28
e 22 31
e 22 32
e 22 33
e 22 39
e 22 40
e 22 42
e 22 43
e 22 47
e 22 48
e 22 49
e 23 25
e 23 27
e 23 28
e 23 29
e 23 32
e 23 35
e 23 44
e 23 45
e 23 48
e 23 49
e 23 50
e 24 35
e 24 36
e 24 42
e 24 43
e 24 44
e 24 46
e 24 47
e 24 48
e 25 27
e 25 28
e 25 29
e 25 30
e 25 34
e 25 39
e 25 40
e 25 43
e 25 44
e 25 46
e 25 47
e 25 48
e 26 31
e 26 32
e 26 34
e 26 38
e 26 39
e 26 40
e 26 42
e 26 44
e 26 46
e 26 47
e 26 48
e 27 29
e 27 32
e 27 33
e 27 34
e 27 35
e 27 36
e 27 39
e 27 45
e 27 49
e 27 50
e 28 31
e 28 32
e 28 36
e 28 38
e 28 39
e 28 41
e 28 44
e 28 48
e 28 50
e 29 30
e 29 32
e 29 34
e 29 35
e 29 39
e 29 41
e 29 42
e 29 44
e 29 46
e 29 47
e 30 33
e 30 38
e 30 39
e 30 41
e 30 43
e 30 45
e 30 46
e 30 47
e 30 49
e 31 34
e 31 35
e 31 40
e 31 41
e 31 47
e 31 50
e 32 34
e 32 36
e 32 37
e 32 42
e 32 44
e 32 45
e 32 49
e 33 34
e 33 37
e 33 38
e 33 39
e 33 40
e 33 41
e 33 44
e 33 45
e 33 46
e 33 47
e 33 49
e 34 36
e 34 38
e 34 40
e 34 41
e 34 45
e 34 46
e 34 48
e 34 49
e 35 37
e 35 38
e 35 42
e 35 44
e 35 45
e 35 47
e 35 48
e 35 50
e 36 37
e 36 38
e 36 39
e 36 43
e 36 44
e 36 46
e 36 48
e 36 50
e 37 38
e 37 39
e 37 40
e 37 41
e 37 43
e 37 44
e 37 45
e 37 46
e 37 48
e 37 49
e 37 50
e 38 41
e 38 43
e 38 45
e 39 40
e 39 42
e 39 44
e 39 46
e 39 49
e 40 41
e 40 42
e 40 45
e 40 47
e 41 42
e 41 43
e 41 45
e 42 43
e 42 46
e 42 47
e 42 50
e 43 44
e 43 45
e 43 46
e 43 47
e 43 48
e 43 49
e 43 50
e 44 48
e 44 50
e 45 46
e 45 47
e 45 48
e 45 50
e 46 47
e 46 48
e 46 50
e 47 48
e 47 50
e 48 49
e 48 50
e 49 50
